
Gurobi 7.5.1 (mac64, Python) logging started Wed Jan 10 16:13:45 2018

Academic license - for non-commercial use only
Changed value of parameter MIPGapAbs to 1e-06
   Prev: 1e-10  Min: 0.0  Max: 1e+100  Default: 1e-10
Changed value of parameter TimeLimit to 1800.0
   Prev: 1e+100  Min: 0.0  Max: 1e+100  Default: 1e+100
Optimize a model with 48971 rows, 35835 columns and 124865 nonzeros
Variable types: 21501 continuous, 14334 integer (0 binary)
Coefficient statistics:
  Matrix range     [5e-01, 1e+03]
  Objective range  [1e+00, 1e+00]
  Bounds range     [1e+00, 1e+03]
  RHS range        [1e+00, 1e+00]
Presolve removed 36352 rows and 26785 columns
Presolve time: 0.35s
Presolved: 12619 rows, 9050 columns, 38485 nonzeros
Variable types: 4397 continuous, 4653 integer (4653 binary)

Root relaxation: objective 1.400000e+01, 1166 iterations, 0.12 seconds

    Nodes    |    Current Node    |     Objective Bounds      |     Work
 Expl Unexpl |  Obj  Depth IntInf | Incumbent    BestBd   Gap | It/Node Time

*    0     0               0      14.0000000   14.00000  0.00%     -    0s

Explored 0 nodes (1384 simplex iterations) in 0.81 seconds
Thread count was 8 (of 8 available processors)

Solution count 1: 14 

Optimal solution found (tolerance 1.00e-04)
Best objective 1.400000000007e+01, best bound 1.400000000007e+01, gap 0.0000%
Changed value of parameter TimeLimit to 1800.0
   Prev: 1e+100  Min: 0.0  Max: 1e+100  Default: 1e+100
Optimize a model with 48972 rows, 35835 columns and 124889 nonzeros
Variable types: 21501 continuous, 14334 integer (0 binary)
Coefficient statistics:
  Matrix range     [5e-01, 1e+03]
  Objective range  [1e+00, 1e+00]
  Bounds range     [1e+00, 1e+03]
  RHS range        [1e+00, 1e+01]
Presolve removed 36352 rows and 26785 columns
Presolve time: 0.35s
Presolved: 12620 rows, 9050 columns, 38505 nonzeros
Variable types: 4397 continuous, 4653 integer (4653 binary)

Root relaxation: objective 1.400000e+01, 1244 iterations, 0.14 seconds

    Nodes    |    Current Node    |     Objective Bounds      |     Work
 Expl Unexpl |  Obj  Depth IntInf | Incumbent    BestBd   Gap | It/Node Time

     0     0   14.00000    0    2          -   14.00000      -     -    0s
     0     0   14.00000    0    2          -   14.00000      -     -    0s
     0     0   14.00000    0    2          -   14.00000      -     -    1s
H    0     0                      20.0000000   14.00000  30.0%     -    1s
H    0     0                      16.0000000   14.00000  12.5%     -    1s
H    0     0                      16.0000000   14.00000  12.5%     -    1s
     0     0   14.00000    0    2   16.00000   14.00000  12.5%     -    1s
H    0     0                      15.0000000   14.00000  6.67%     -    2s
H    0     0                      14.5000000   14.00000  3.45%     -    2s
     0     0   14.00000    0    2   14.50000   14.00000  3.45%     -    2s
     0     0   14.00000    0    2   14.50000   14.00000  3.45%     -    2s
H    0     0                      14.4999990   14.00000  3.45%     -    2s
     0     0   14.00000    0    3   14.50000   14.00000  3.45%     -    2s
     0     0   14.00000    0    2   14.50000   14.00000  3.45%     -    2s
     0     0   14.00000    0    2   14.50000   14.00000  3.45%     -    2s
H    0     0                      14.4999981   14.00000  3.45%     -    2s
     0     0   14.00000    0    2   14.50000   14.00000  3.45%     -    2s
     0     0   14.00000    0    2   14.50000   14.00000  3.45%     -    2s
     0     0   14.00000    0    2   14.50000   14.00000  3.45%     -    2s
     0     0   14.00000    0    2   14.50000   14.00000  3.45%     -    2s
     0     0   14.02201    0   15   14.50000   14.02201  3.30%     -    2s
     0     0   14.16666    0    3   14.50000   14.16666  2.30%     -    2s

Cutting planes:
  Cover: 1
  MIR: 1
  Flow cover: 1

Explored 1 nodes (4127 simplex iterations) in 2.43 seconds
Thread count was 8 (of 8 available processors)

Solution count 8: 14.5 14.5 14.5 ... 20

Optimal solution found (tolerance 1.00e-04)
Best objective 1.449999808939e+01, best bound 1.449999808930e+01, gap 0.0000%
Changed value of parameter TimeLimit to 1800.0
   Prev: 1e+100  Min: 0.0  Max: 1e+100  Default: 1e+100
Optimize a model with 48973 rows, 35835 columns and 124931 nonzeros
Variable types: 21501 continuous, 14334 integer (0 binary)
Coefficient statistics:
  Matrix range     [5e-01, 1e+03]
  Objective range  [1e+00, 1e+00]
  Bounds range     [1e+00, 1e+03]
  RHS range        [1e+00, 2e+01]
Presolve removed 36352 rows and 26785 columns
Presolve time: 0.36s
Presolved: 12621 rows, 9050 columns, 38541 nonzeros
Variable types: 4397 continuous, 4653 integer (4653 binary)

Root relaxation: objective 1.400000e+01, 1244 iterations, 0.14 seconds

    Nodes    |    Current Node    |     Objective Bounds      |     Work
 Expl Unexpl |  Obj  Depth IntInf | Incumbent    BestBd   Gap | It/Node Time

     0     0   14.00000    0    2          -   14.00000      -     -    0s
     0     0   14.00000    0    2          -   14.00000      -     -    1s
H    0     0                      15.0000000   14.00000  6.67%     -    1s
     0     0   14.00000    0    2   15.00000   14.00000  6.67%     -    1s

Explored 1 nodes (2011 simplex iterations) in 1.55 seconds
Thread count was 8 (of 8 available processors)

Solution count 1: 15 

Solve interrupted
Best objective 1.500000000008e+01, best bound 1.399999999957e+01, gap 6.6667%

Gurobi 7.5.1 (mac64, Python) logging started Wed Jan 10 16:14:22 2018

Academic license - for non-commercial use only
Changed value of parameter MIPGapAbs to 1e-06
   Prev: 1e-10  Min: 0.0  Max: 1e+100  Default: 1e-10
Changed value of parameter TimeLimit to 1800.0
   Prev: 1e+100  Min: 0.0  Max: 1e+100  Default: 1e+100
Optimize a model with 48971 rows, 35835 columns and 124865 nonzeros
Variable types: 21501 continuous, 14334 integer (0 binary)
Coefficient statistics:
  Matrix range     [5e-01, 1e+03]
  Objective range  [1e+00, 1e+00]
  Bounds range     [1e+00, 1e+03]
  RHS range        [1e+00, 1e+00]
Presolve removed 36352 rows and 26785 columns
Presolve time: 0.35s
Presolved: 12619 rows, 9050 columns, 38485 nonzeros
Variable types: 4397 continuous, 4653 integer (4653 binary)

Root relaxation: objective 1.400000e+01, 1166 iterations, 0.12 seconds

    Nodes    |    Current Node    |     Objective Bounds      |     Work
 Expl Unexpl |  Obj  Depth IntInf | Incumbent    BestBd   Gap | It/Node Time

*    0     0               0      14.0000000   14.00000  0.00%     -    0s

Explored 0 nodes (1384 simplex iterations) in 0.80 seconds
Thread count was 8 (of 8 available processors)

Solution count 1: 14 

Optimal solution found (tolerance 1.00e-04)
Best objective 1.400000000007e+01, best bound 1.400000000007e+01, gap 0.0000%

Gurobi 7.5.1 (mac64, Python) logging started Wed Jan 10 16:18:24 2018

Academic license - for non-commercial use only
Changed value of parameter MIPGapAbs to 1e-06
   Prev: 1e-10  Min: 0.0  Max: 1e+100  Default: 1e-10
Changed value of parameter TimeLimit to 1800.0
   Prev: 1e+100  Min: 0.0  Max: 1e+100  Default: 1e+100
Optimize a model with 48971 rows, 35835 columns and 124865 nonzeros
Variable types: 21501 continuous, 14334 integer (0 binary)
Coefficient statistics:
  Matrix range     [5e-01, 1e+03]
  Objective range  [1e+00, 1e+00]
  Bounds range     [1e+00, 1e+03]
  RHS range        [1e+00, 1e+00]
Presolve removed 36352 rows and 26785 columns
Presolve time: 0.38s
Presolved: 12619 rows, 9050 columns, 38485 nonzeros
Variable types: 4397 continuous, 4653 integer (4653 binary)

Root relaxation: objective 1.400000e+01, 1166 iterations, 0.12 seconds

    Nodes    |    Current Node    |     Objective Bounds      |     Work
 Expl Unexpl |  Obj  Depth IntInf | Incumbent    BestBd   Gap | It/Node Time

*    0     0               0      14.0000000   14.00000  0.00%     -    0s

Explored 0 nodes (1384 simplex iterations) in 0.82 seconds
Thread count was 8 (of 8 available processors)

Solution count 1: 14 

Optimal solution found (tolerance 1.00e-04)
Best objective 1.400000000007e+01, best bound 1.400000000007e+01, gap 0.0000%

Gurobi 7.5.1 (mac64, Python) logging started Wed Jan 10 16:19:17 2018

Academic license - for non-commercial use only
Changed value of parameter MIPGapAbs to 1e-06
   Prev: 1e-10  Min: 0.0  Max: 1e+100  Default: 1e-10
Changed value of parameter TimeLimit to 1800.0
   Prev: 1e+100  Min: 0.0  Max: 1e+100  Default: 1e+100
Optimize a model with 48971 rows, 35835 columns and 124865 nonzeros
Variable types: 21501 continuous, 14334 integer (0 binary)
Coefficient statistics:
  Matrix range     [5e-01, 1e+03]
  Objective range  [1e+00, 1e+00]
  Bounds range     [1e+00, 1e+03]
  RHS range        [1e+00, 1e+00]
Presolve removed 36352 rows and 26785 columns
Presolve time: 0.36s
Presolved: 12619 rows, 9050 columns, 38485 nonzeros
Variable types: 4397 continuous, 4653 integer (4653 binary)

Root relaxation: objective 1.400000e+01, 1166 iterations, 0.13 seconds

    Nodes    |    Current Node    |     Objective Bounds      |     Work
 Expl Unexpl |  Obj  Depth IntInf | Incumbent    BestBd   Gap | It/Node Time

*    0     0               0      14.0000000   14.00000  0.00%     -    0s

Explored 0 nodes (1384 simplex iterations) in 0.85 seconds
Thread count was 8 (of 8 available processors)

Solution count 1: 14 

Optimal solution found (tolerance 1.00e-04)
Best objective 1.400000000007e+01, best bound 1.400000000007e+01, gap 0.0000%

Gurobi 7.5.1 (mac64, Python) logging started Wed Feb 14 17:02:58 2018

Academic license - for non-commercial use only
Changed value of parameter MIPGapAbs to 1e-06
   Prev: 1e-10  Min: 0.0  Max: 1e+100  Default: 1e-10

Gurobi 7.5.1 (mac64, Python) logging started Wed Feb 14 17:04:22 2018

Academic license - for non-commercial use only
Changed value of parameter MIPGapAbs to 1e-06
   Prev: 1e-10  Min: 0.0  Max: 1e+100  Default: 1e-10

Gurobi 7.5.1 (mac64, Python) logging started Wed Feb 14 17:12:47 2018

Academic license - for non-commercial use only
Changed value of parameter MIPGapAbs to 1e-06
   Prev: 1e-10  Min: 0.0  Max: 1e+100  Default: 1e-10

Gurobi 7.5.1 (mac64, Python) logging started Wed Feb 14 17:14:55 2018

Academic license - for non-commercial use only
Changed value of parameter MIPGapAbs to 1e-06
   Prev: 1e-10  Min: 0.0  Max: 1e+100  Default: 1e-10

Gurobi 7.5.1 (mac64, Python) logging started Wed Feb 14 17:15:42 2018

Academic license - for non-commercial use only
Changed value of parameter MIPGapAbs to 1e-06
   Prev: 1e-10  Min: 0.0  Max: 1e+100  Default: 1e-10

Gurobi 7.5.1 (mac64, Python) logging started Wed Feb 14 17:16:00 2018

Academic license - for non-commercial use only
Changed value of parameter MIPGapAbs to 1e-06
   Prev: 1e-10  Min: 0.0  Max: 1e+100  Default: 1e-10

Gurobi 7.5.1 (mac64, Python) logging started Wed Feb 14 17:16:53 2018

Academic license - for non-commercial use only
Changed value of parameter MIPGapAbs to 1e-06
   Prev: 1e-10  Min: 0.0  Max: 1e+100  Default: 1e-10

Gurobi 7.5.1 (mac64, Python) logging started Wed Feb 14 17:21:14 2018

Academic license - for non-commercial use only
Changed value of parameter MIPGapAbs to 1e-06
   Prev: 1e-10  Min: 0.0  Max: 1e+100  Default: 1e-10

Gurobi 7.5.1 (mac64, Python) logging started Wed Feb 14 17:27:38 2018

Academic license - for non-commercial use only
Changed value of parameter MIPGapAbs to 1e-06
   Prev: 1e-10  Min: 0.0  Max: 1e+100  Default: 1e-10

Gurobi 7.5.1 (mac64, Python) logging started Wed Feb 14 17:29:48 2018

Academic license - for non-commercial use only
Changed value of parameter MIPGapAbs to 1e-06
   Prev: 1e-10  Min: 0.0  Max: 1e+100  Default: 1e-10
Changed value of parameter TimeLimit to 1800.0
   Prev: 1e+100  Min: 0.0  Max: 1e+100  Default: 1e+100
Optimize a model with 4944 rows, 4120 columns and 10712 nonzeros
Variable types: 2472 continuous, 1648 integer (0 binary)
Coefficient statistics:
  Matrix range     [5e-01, 1e+03]
  Objective range  [1e+00, 1e+00]
  Bounds range     [1e+00, 1e+03]
  RHS range        [1e+00, 1e+00]
Found heuristic solution: objective 0

Explored 0 nodes (0 simplex iterations) in 0.01 seconds
Thread count was 1 (of 8 available processors)

Solution count 1: 0 

Optimal solution found (tolerance 1.00e-04)
Best objective 0.000000000000e+00, best bound 0.000000000000e+00, gap 0.0000%

Gurobi 7.5.1 (mac64, Python) logging started Wed Feb 14 17:34:01 2018

Academic license - for non-commercial use only
Changed value of parameter MIPGapAbs to 1e-06
   Prev: 1e-10  Min: 0.0  Max: 1e+100  Default: 1e-10
Changed value of parameter TimeLimit to 1800.0
   Prev: 1e+100  Min: 0.0  Max: 1e+100  Default: 1e+100
Optimize a model with 4944 rows, 4120 columns and 10712 nonzeros
Variable types: 2472 continuous, 1648 integer (0 binary)
Coefficient statistics:
  Matrix range     [5e-01, 1e+03]
  Objective range  [1e+00, 1e+00]
  Bounds range     [1e+00, 1e+03]
  RHS range        [1e+00, 1e+00]
Found heuristic solution: objective 0

Explored 0 nodes (0 simplex iterations) in 0.00 seconds
Thread count was 1 (of 8 available processors)

Solution count 1: 0 

Optimal solution found (tolerance 1.00e-04)
Best objective 0.000000000000e+00, best bound 0.000000000000e+00, gap 0.0000%

Gurobi 7.5.1 (mac64, Python) logging started Wed Feb 14 17:36:14 2018

Academic license - for non-commercial use only
Changed value of parameter MIPGapAbs to 1e-06
   Prev: 1e-10  Min: 0.0  Max: 1e+100  Default: 1e-10

Gurobi 7.5.1 (mac64, Python) logging started Wed Feb 14 17:39:06 2018

Academic license - for non-commercial use only
Changed value of parameter MIPGapAbs to 1e-06
   Prev: 1e-10  Min: 0.0  Max: 1e+100  Default: 1e-10

Gurobi 7.5.1 (mac64, Python) logging started Wed Feb 14 17:39:33 2018

Academic license - for non-commercial use only
Changed value of parameter MIPGapAbs to 1e-06
   Prev: 1e-10  Min: 0.0  Max: 1e+100  Default: 1e-10

Gurobi 7.5.1 (mac64, Python) logging started Wed Feb 14 17:49:36 2018

Academic license - for non-commercial use only
Changed value of parameter MIPGapAbs to 1e-06
   Prev: 1e-10  Min: 0.0  Max: 1e+100  Default: 1e-10
Changed value of parameter TimeLimit to 1800.0
   Prev: 1e+100  Min: 0.0  Max: 1e+100  Default: 1e+100
Optimize a model with 5611 rows, 4120 columns and 14600 nonzeros
Variable types: 2472 continuous, 1648 integer (0 binary)
Coefficient statistics:
  Matrix range     [1e-02, 3e+04]
  Objective range  [1e+00, 1e+00]
  Bounds range     [1e+00, 1e+03]
  RHS range        [1e+00, 1e+00]
Presolve removed 1 rows and 1242 columns
Presolve time: 0.00s

Explored 0 nodes (0 simplex iterations) in 0.02 seconds
Thread count was 1 (of 8 available processors)

Solution count 0

Model is infeasible
Best objective -, best bound -, gap -

Gurobi 7.5.1 (mac64, Python) logging started Wed Feb 14 17:52:50 2018

Academic license - for non-commercial use only
Changed value of parameter MIPGapAbs to 1e-06
   Prev: 1e-10  Min: 0.0  Max: 1e+100  Default: 1e-10
Changed value of parameter TimeLimit to 1800.0
   Prev: 1e+100  Min: 0.0  Max: 1e+100  Default: 1e+100
Optimize a model with 5608 rows, 4120 columns and 14600 nonzeros
Variable types: 2472 continuous, 1648 integer (0 binary)
Coefficient statistics:
  Matrix range     [1e-02, 3e+04]
  Objective range  [1e+00, 1e+00]
  Bounds range     [1e+00, 1e+03]
  RHS range        [1e+00, 1e+00]
Presolve removed 4542 rows and 3293 columns
Presolve time: 0.04s
Presolved: 1066 rows, 827 columns, 3464 nonzeros
Variable types: 409 continuous, 418 integer (418 binary)

Root relaxation: objective 1.280000e+01, 100 iterations, 0.00 seconds

    Nodes    |    Current Node    |     Objective Bounds      |     Work
 Expl Unexpl |  Obj  Depth IntInf | Incumbent    BestBd   Gap | It/Node Time

     0     0   12.80000    0    4          -   12.80000      -     -    0s
     0     0   12.80000    0    4          -   12.80000      -     -    0s
H    0     0                     110.5000000   12.80000  88.4%     -    0s
H    0     0                      98.6666667   12.80000  87.0%     -    0s
     0     2   12.80000    0    4   98.66667   12.80000  87.0%     -    0s
*    3     6               2      14.0000000   13.00000  7.14%  67.0    0s

Cutting planes:
  Implied bound: 1

Explored 7 nodes (398 simplex iterations) in 0.20 seconds
Thread count was 8 (of 8 available processors)

Solution count 3: 14 98.6667 110.5 

Optimal solution found (tolerance 1.00e-04)
Best objective 1.400000000026e+01, best bound 1.400000000026e+01, gap 0.0000%

Gurobi 7.5.1 (mac64, Python) logging started Wed Feb 14 21:24:01 2018

Academic license - for non-commercial use only
Changed value of parameter MIPGapAbs to 1e-06
   Prev: 1e-10  Min: 0.0  Max: 1e+100  Default: 1e-10
Changed value of parameter TimeLimit to 1800.0
   Prev: 1e+100  Min: 0.0  Max: 1e+100  Default: 1e+100
Optimize a model with 5689 rows, 4120 columns and 14757 nonzeros
Variable types: 2472 continuous, 1648 integer (0 binary)
Coefficient statistics:
  Matrix range     [1e-02, 3e+04]
  Objective range  [1e+00, 1e+00]
  Bounds range     [1e+00, 1e+03]
  RHS range        [1e+00, 1e+00]
Presolve removed 5095 rows and 3678 columns
Presolve time: 0.04s
Presolved: 594 rows, 442 columns, 1927 nonzeros
Variable types: 218 continuous, 224 integer (224 binary)

Root relaxation: objective 1.800000e+01, 61 iterations, 0.00 seconds

    Nodes    |    Current Node    |     Objective Bounds      |     Work
 Expl Unexpl |  Obj  Depth IntInf | Incumbent    BestBd   Gap | It/Node Time

*    0     0               0      18.0000000   18.00000  0.00%     -    0s

Explored 0 nodes (65 simplex iterations) in 0.09 seconds
Thread count was 8 (of 8 available processors)

Solution count 1: 18 

Optimal solution found (tolerance 1.00e-04)
Best objective 1.800000000009e+01, best bound 1.800000000009e+01, gap 0.0000%

Gurobi 7.5.1 (mac64, Python) logging started Wed Feb 14 21:40:59 2018

Academic license - for non-commercial use only
Changed value of parameter MIPGapAbs to 1e-06
   Prev: 1e-10  Min: 0.0  Max: 1e+100  Default: 1e-10
Changed value of parameter TimeLimit to 1800.0
   Prev: 1e+100  Min: 0.0  Max: 1e+100  Default: 1e+100
Optimize a model with 5689 rows, 4120 columns and 14757 nonzeros
Variable types: 2472 continuous, 1648 integer (0 binary)
Coefficient statistics:
  Matrix range     [1e-02, 3e+04]
  Objective range  [1e+00, 1e+00]
  Bounds range     [1e+00, 1e+03]
  RHS range        [1e+00, 1e+00]
Presolve removed 5095 rows and 3678 columns
Presolve time: 0.03s
Presolved: 594 rows, 442 columns, 1927 nonzeros
Variable types: 218 continuous, 224 integer (224 binary)

Root relaxation: objective 1.800000e+01, 61 iterations, 0.00 seconds

    Nodes    |    Current Node    |     Objective Bounds      |     Work
 Expl Unexpl |  Obj  Depth IntInf | Incumbent    BestBd   Gap | It/Node Time

*    0     0               0      18.0000000   18.00000  0.00%     -    0s

Explored 0 nodes (65 simplex iterations) in 0.09 seconds
Thread count was 8 (of 8 available processors)

Solution count 1: 18 

Optimal solution found (tolerance 1.00e-04)
Best objective 1.800000000009e+01, best bound 1.800000000009e+01, gap 0.0000%

Gurobi 7.5.1 (mac64, Python) logging started Wed Feb 14 21:41:38 2018

Academic license - for non-commercial use only
Changed value of parameter MIPGapAbs to 1e-06
   Prev: 1e-10  Min: 0.0  Max: 1e+100  Default: 1e-10
Changed value of parameter TimeLimit to 1800.0
   Prev: 1e+100  Min: 0.0  Max: 1e+100  Default: 1e+100
Optimize a model with 5689 rows, 4120 columns and 14757 nonzeros
Variable types: 2472 continuous, 1648 integer (0 binary)
Coefficient statistics:
  Matrix range     [1e-02, 3e+04]
  Objective range  [1e+00, 1e+00]
  Bounds range     [1e+00, 1e+03]
  RHS range        [1e+00, 1e+00]
Presolve removed 5095 rows and 3678 columns
Presolve time: 0.02s
Presolved: 594 rows, 442 columns, 1927 nonzeros
Variable types: 218 continuous, 224 integer (224 binary)

Root relaxation: objective 1.800000e+01, 61 iterations, 0.00 seconds

    Nodes    |    Current Node    |     Objective Bounds      |     Work
 Expl Unexpl |  Obj  Depth IntInf | Incumbent    BestBd   Gap | It/Node Time

*    0     0               0      18.0000000   18.00000  0.00%     -    0s

Explored 0 nodes (65 simplex iterations) in 0.06 seconds
Thread count was 8 (of 8 available processors)

Solution count 1: 18 

Optimal solution found (tolerance 1.00e-04)
Best objective 1.800000000009e+01, best bound 1.800000000009e+01, gap 0.0000%

Gurobi 7.5.1 (mac64, Python) logging started Wed Feb 14 21:44:18 2018

Academic license - for non-commercial use only
Changed value of parameter MIPGapAbs to 1e-06
   Prev: 1e-10  Min: 0.0  Max: 1e+100  Default: 1e-10
Changed value of parameter TimeLimit to 1800.0
   Prev: 1e+100  Min: 0.0  Max: 1e+100  Default: 1e+100
Optimize a model with 5689 rows, 4120 columns and 14757 nonzeros
Variable types: 2472 continuous, 1648 integer (0 binary)
Coefficient statistics:
  Matrix range     [1e-02, 3e+04]
  Objective range  [1e+00, 1e+00]
  Bounds range     [1e+00, 1e+03]
  RHS range        [1e+00, 1e+00]
Presolve removed 5095 rows and 3678 columns
Presolve time: 0.03s
Presolved: 594 rows, 442 columns, 1927 nonzeros
Variable types: 218 continuous, 224 integer (224 binary)

Root relaxation: objective 1.800000e+01, 61 iterations, 0.00 seconds

    Nodes    |    Current Node    |     Objective Bounds      |     Work
 Expl Unexpl |  Obj  Depth IntInf | Incumbent    BestBd   Gap | It/Node Time

*    0     0               0      18.0000000   18.00000  0.00%     -    0s

Explored 0 nodes (65 simplex iterations) in 0.07 seconds
Thread count was 8 (of 8 available processors)

Solution count 1: 18 

Optimal solution found (tolerance 1.00e-04)
Best objective 1.800000000009e+01, best bound 1.800000000009e+01, gap 0.0000%

Gurobi 7.5.1 (mac64, Python) logging started Wed Feb 14 21:46:32 2018

Academic license - for non-commercial use only
Changed value of parameter MIPGapAbs to 1e-06
   Prev: 1e-10  Min: 0.0  Max: 1e+100  Default: 1e-10
Changed value of parameter TimeLimit to 1800.0
   Prev: 1e+100  Min: 0.0  Max: 1e+100  Default: 1e+100
Optimize a model with 5689 rows, 4120 columns and 14757 nonzeros
Variable types: 2472 continuous, 1648 integer (0 binary)
Coefficient statistics:
  Matrix range     [1e-02, 3e+04]
  Objective range  [1e+00, 1e+00]
  Bounds range     [1e+00, 1e+03]
  RHS range        [1e+00, 1e+00]
Presolve removed 5095 rows and 3678 columns
Presolve time: 0.03s
Presolved: 594 rows, 442 columns, 1927 nonzeros
Variable types: 218 continuous, 224 integer (224 binary)

Root relaxation: objective 1.800000e+01, 61 iterations, 0.00 seconds

    Nodes    |    Current Node    |     Objective Bounds      |     Work
 Expl Unexpl |  Obj  Depth IntInf | Incumbent    BestBd   Gap | It/Node Time

*    0     0               0      18.0000000   18.00000  0.00%     -    0s

Explored 0 nodes (65 simplex iterations) in 0.06 seconds
Thread count was 8 (of 8 available processors)

Solution count 1: 18 

Optimal solution found (tolerance 1.00e-04)
Best objective 1.800000000009e+01, best bound 1.800000000009e+01, gap 0.0000%

Gurobi 7.5.1 (mac64, Python) logging started Wed Feb 14 21:47:47 2018

Academic license - for non-commercial use only
Changed value of parameter MIPGapAbs to 1e-06
   Prev: 1e-10  Min: 0.0  Max: 1e+100  Default: 1e-10
Changed value of parameter TimeLimit to 1800.0
   Prev: 1e+100  Min: 0.0  Max: 1e+100  Default: 1e+100
Optimize a model with 5689 rows, 4120 columns and 14757 nonzeros
Variable types: 2472 continuous, 1648 integer (0 binary)
Coefficient statistics:
  Matrix range     [1e-02, 3e+04]
  Objective range  [1e+00, 1e+00]
  Bounds range     [1e+00, 1e+03]
  RHS range        [1e+00, 1e+00]
Presolve removed 5095 rows and 3678 columns
Presolve time: 0.03s
Presolved: 594 rows, 442 columns, 1927 nonzeros
Variable types: 218 continuous, 224 integer (224 binary)

Root relaxation: objective 1.800000e+01, 61 iterations, 0.00 seconds

    Nodes    |    Current Node    |     Objective Bounds      |     Work
 Expl Unexpl |  Obj  Depth IntInf | Incumbent    BestBd   Gap | It/Node Time

*    0     0               0      18.0000000   18.00000  0.00%     -    0s

Explored 0 nodes (65 simplex iterations) in 0.06 seconds
Thread count was 8 (of 8 available processors)

Solution count 1: 18 

Optimal solution found (tolerance 1.00e-04)
Best objective 1.800000000009e+01, best bound 1.800000000009e+01, gap 0.0000%

Gurobi 7.5.1 (mac64, Python) logging started Wed Feb 14 21:48:25 2018

Academic license - for non-commercial use only
Changed value of parameter MIPGapAbs to 1e-06
   Prev: 1e-10  Min: 0.0  Max: 1e+100  Default: 1e-10
Changed value of parameter TimeLimit to 1800.0
   Prev: 1e+100  Min: 0.0  Max: 1e+100  Default: 1e+100
Optimize a model with 5689 rows, 4120 columns and 14757 nonzeros
Variable types: 2472 continuous, 1648 integer (0 binary)
Coefficient statistics:
  Matrix range     [1e-02, 3e+04]
  Objective range  [1e+00, 1e+00]
  Bounds range     [1e+00, 1e+03]
  RHS range        [1e+00, 1e+00]
Presolve removed 5095 rows and 3678 columns
Presolve time: 0.02s
Presolved: 594 rows, 442 columns, 1927 nonzeros
Variable types: 218 continuous, 224 integer (224 binary)

Root relaxation: objective 1.800000e+01, 61 iterations, 0.00 seconds

    Nodes    |    Current Node    |     Objective Bounds      |     Work
 Expl Unexpl |  Obj  Depth IntInf | Incumbent    BestBd   Gap | It/Node Time

*    0     0               0      18.0000000   18.00000  0.00%     -    0s

Explored 0 nodes (65 simplex iterations) in 0.06 seconds
Thread count was 8 (of 8 available processors)

Solution count 1: 18 

Optimal solution found (tolerance 1.00e-04)
Best objective 1.800000000009e+01, best bound 1.800000000009e+01, gap 0.0000%
